c "348951.clq"
p edge 204 3008
e 1 17
e 1 18
e 1 19
e 1 20
e 1 21
e 1 22
e 1 25
e 1 31
e 1 32
e 1 33
e 1 37
e 1 50
e 1 53
e 1 54
e 1 55
e 1 65
e 1 67
e 1 69
e 1 71
e 1 77
e 1 78
e 1 79
e 1 86
e 1 89
e 1 91
e 1 95
e 1 106
e 1 107
e 1 114
e 1 122
e 1 130
e 1 151
e 1 160
e 1 171
e 1 176
e 1 180
e 1 185
e 1 192
e 1 203
e 2 17
e 2 18
e 2 19
e 2 20
e 2 21
e 2 22
e 2 24
e 2 25
e 2 27
e 2 34
e 2 35
e 2 38
e 2 48
e 2 56
e 2 61
e 2 72
e 2 80
e 2 83
e 2 88
e 2 93
e 2 101
e 2 105
e 2 106
e 2 111
e 2 112
e 2 114
e 2 122
e 2 126
e 2 131
e 2 142
e 2 163
e 2 178
e 2 186
e 2 188
e 2 193
e 2 197
e 3 17
e 3 18
e 3 19
e 3 20
e 3 21
e 3 22
e 3 23
e 3 24
e 3 25
e 3 26
e 3 27
e 3 28
e 3 29
e 3 32
e 3 33
e 3 34
e 3 36
e 3 42
e 3 44
e 3 45
e 3 51
e 3 52
e 3 53
e 3 58
e 3 65
e 3 70
e 3 73
e 3 78
e 3 89
e 3 92
e 3 94
e 3 101
e 3 105
e 3 109
e 3 111
e 3 116
e 3 118
e 3 121
e 3 129
e 3 131
e 3 141
e 3 148
e 3 149
e 3 156
e 3 176
e 3 180
e 3 185
e 3 187
e 3 191
e 3 193
e 3 198
e 4 17
e 4 18
e 4 19
e 4 20
e 4 21
e 4 24
e 4 25
e 4 26
e 4 27
e 4 33
e 4 34
e 4 36
e 4 39
e 4 41
e 4 42
e 4 43
e 4 47
e 4 57
e 4 59
e 4 60
e 4 61
e 4 66
e 4 72
e 4 77
e 4 82
e 4 93
e 4 96
e 4 111
e 4 171
e 4 180
e 4 195
e 5 17
e 5 18
e 5 19
e 5 20
e 5 23
e 5 24
e 5 26
e 5 28
e 5 34
e 5 37
e 5 39
e 5 40
e 5 42
e 5 43
e 5 52
e 5 58
e 5 64
e 5 65
e 5 67
e 5 78
e 5 79
e 5 82
e 5 83
e 5 84
e 5 86
e 5 91
e 5 97
e 5 100
e 5 101
e 5 114
e 5 117
e 5 126
e 5 130
e 5 139
e 5 147
e 5 156
e 5 158
e 5 170
e 6 17
e 6 18
e 6 20
e 6 21
e 6 22
e 6 24
e 6 28
e 6 29
e 6 44
e 6 53
e 6 54
e 6 58
e 6 77
e 6 80
e 6 91
e 6 95
e 6 109
e 6 126
e 6 131
e 6 155
e 6 183
e 6 195
e 6 204
e 7 17
e 7 18
e 7 19
e 7 20
e 7 21
e 7 22
e 7 23
e 7 24
e 7 25
e 7 27
e 7 29
e 7 30
e 7 31
e 7 35
e 7 36
e 7 38
e 7 39
e 7 50
e 7 51
e 7 52
e 7 53
e 7 58
e 7 61
e 7 63
e 7 64
e 7 66
e 7 68
e 7 70
e 7 73
e 7 74
e 7 81
e 7 84
e 7 87
e 7 92
e 7 93
e 7 97
e 7 108
e 7 109
e 7 115
e 7 117
e 7 124
e 7 132
e 7 133
e 7 137
e 7 138
e 7 156
e 7 159
e 7 163
e 7 168
e 7 170
e 7 174
e 7 196
e 7 199
e 7 204
e 8 17
e 8 18
e 8 19
e 8 20
e 8 23
e 8 26
e 8 27
e 8 28
e 8 30
e 8 31
e 8 36
e 8 53
e 8 59
e 8 67
e 8 76
e 8 85
e 8 91
e 8 114
e 8 171
e 8 178
e 8 184
e 8 189
e 8 194
e 9 17
e 9 18
e 9 19
e 9 20
e 9 27
e 9 30
e 9 32
e 9 37
e 9 40
e 9 46
e 9 47
e 9 48
e 9 49
e 9 54
e 9 56
e 9 60
e 9 62
e 9 64
e 9 67
e 9 76
e 9 85
e 9 93
e 9 97
e 9 104
e 9 109
e 9 110
e 9 112
e 9 113
e 9 116
e 9 118
e 9 119
e 9 136
e 9 142
e 9 149
e 9 151
e 9 155
e 9 163
e 9 173
e 9 187
e 9 188
e 9 189
e 9 194
e 9 197
e 9 200
e 9 201
e 10 17
e 10 18
e 10 19
e 10 20
e 10 21
e 10 22
e 10 23
e 10 24
e 10 27
e 10 31
e 10 35
e 10 40
e 10 44
e 10 57
e 10 73
e 10 77
e 10 84
e 10 99
e 10 104
e 10 105
e 10 137
e 10 148
e 10 183
e 10 188
e 10 192
e 10 196
e 11 17
e 11 18
e 11 19
e 11 21
e 11 22
e 11 24
e 11 25
e 11 28
e 11 29
e 11 32
e 11 34
e 11 38
e 11 45
e 11 46
e 11 51
e 11 54
e 11 71
e 11 72
e 11 74
e 11 82
e 11 86
e 11 97
e 11 103
e 11 111
e 11 116
e 11 122
e 11 130
e 11 141
e 11 147
e 11 149
e 11 163
e 11 166
e 11 172
e 11 185
e 12 17
e 12 18
e 12 19
e 12 21
e 12 22
e 12 23
e 12 25
e 12 26
e 12 27
e 12 30
e 12 36
e 12 38
e 12 40
e 12 41
e 12 46
e 12 48
e 12 50
e 12 52
e 12 55
e 12 61
e 12 63
e 12 68
e 12 69
e 12 75
e 12 84
e 12 105
e 12 110
e 12 113
e 12 115
e 12 137
e 12 139
e 12 141
e 12 148
e 12 153
e 12 164
e 12 190
e 12 195
e 12 197
e 12 200
e 12 203
e 12 204
e 13 17
e 13 18
e 13 19
e 13 20
e 13 21
e 13 23
e 13 24
e 13 25
e 13 26
e 13 29
e 13 30
e 13 31
e 13 33
e 13 35
e 13 37
e 13 44
e 13 49
e 13 56
e 13 57
e 13 58
e 13 65
e 13 70
e 13 72
e 13 88
e 13 90
e 13 92
e 13 93
e 13 94
e 13 97
e 13 100
e 13 107
e 13 111
e 13 120
e 13 125
e 13 130
e 13 148
e 13 157
e 13 161
e 13 165
e 13 167
e 13 169
e 13 171
e 13 174
e 13 180
e 13 204
e 14 17
e 14 18
e 14 19
e 14 20
e 14 21
e 14 22
e 14 23
e 14 25
e 14 29
e 14 33
e 14 36
e 14 38
e 14 41
e 14 45
e 14 55
e 14 57
e 14 59
e 14 60
e 14 69
e 14 72
e 14 76
e 14 80
e 14 81
e 14 85
e 14 86
e 14 92
e 14 103
e 14 112
e 14 119
e 14 121
e 14 122
e 14 138
e 14 139
e 14 147
e 14 148
e 14 159
e 14 164
e 14 177
e 14 185
e 14 190
e 14 192
e 14 203
e 15 17
e 15 18
e 15 19
e 15 20
e 15 21
e 15 22
e 15 23
e 15 24
e 15 26
e 15 27
e 15 28
e 15 29
e 15 30
e 15 31
e 15 33
e 15 34
e 15 37
e 15 38
e 15 40
e 15 42
e 15 43
e 15 45
e 15 47
e 15 49
e 15 54
e 15 56
e 15 58
e 15 61
e 15 63
e 15 64
e 15 66
e 15 73
e 15 74
e 15 79
e 15 84
e 15 90
e 15 92
e 15 93
e 15 97
e 15 100
e 15 101
e 15 104
e 15 111
e 15 115
e 15 117
e 15 120
e 15 126
e 15 130
e 15 132
e 15 133
e 15 137
e 15 145
e 15 148
e 15 164
e 15 182
e 15 187
e 15 199
e 16 17
e 16 22
e 16 23
e 16 26
e 16 28
e 16 38
e 16 44
e 16 47
e 16 102
e 16 120
e 16 153
e 17 18
e 17 19
e 17 20
e 17 21
e 17 22
e 17 23
e 17 24
e 17 25
e 17 26
e 17 27
e 17 28
e 17 29
e 17 30
e 17 31
e 17 32
e 17 33
e 17 35
e 17 36
e 17 39
e 17 41
e 17 42
e 17 45
e 17 46
e 17 47
e 17 49
e 17 50
e 17 51
e 17 52
e 17 54
e 17 56
e 17 57
e 17 58
e 17 59
e 17 63
e 17 64
e 17 65
e 17 67
e 17 68
e 17 72
e 17 73
e 17 76
e 17 78
e 17 79
e 17 80
e 17 83
e 17 84
e 17 85
e 17 86
e 17 88
e 17 90
e 17 91
e 17 92
e 17 97
e 17 98
e 17 99
e 17 103
e 17 108
e 17 110
e 17 113
e 17 116
e 17 123
e 17 125
e 17 126
e 17 127
e 17 128
e 17 129
e 17 141
e 17 143
e 17 146
e 17 163
e 17 166
e 17 167
e 17 170
e 17 173
e 17 182
e 17 183
e 17 184
e 17 189
e 17 199
e 17 201
e 18 19
e 18 20
e 18 21
e 18 22
e 18 23
e 18 24
e 18 25
e 18 26
e 18 27
e 18 28
e 18 29
e 18 30
e 18 31
e 18 32
e 18 33
e 18 35
e 18 38
e 18 40
e 18 42
e 18 43
e 18 44
e 18 45
e 18 47
e 18 48
e 18 49
e 18 50
e 18 51
e 18 52
e 18 54
e 18 55
e 18 59
e 18 61
e 18 65
e 18 66
e 18 71
e 18 76
e 18 77
e 18 83
e 18 87
e 18 89
e 18 93
e 18 96
e 18 98
e 18 101
e 18 108
e 18 112
e 18 113
e 18 114
e 18 123
e 18 125
e 18 127
e 18 128
e 18 131
e 18 134
e 18 135
e 18 136
e 18 138
e 18 143
e 18 148
e 18 149
e 18 150
e 18 151
e 18 155
e 18 159
e 18 160
e 18 163
e 18 170
e 18 179
e 18 180
e 18 181
e 18 184
e 18 185
e 18 186
e 18 191
e 18 192
e 18 195
e 19 20
e 19 21
e 19 22
e 19 23
e 19 24
e 19 25
e 19 26
e 19 27
e 19 28
e 19 29
e 19 30
e 19 31
e 19 32
e 19 34
e 19 37
e 19 39
e 19 40
e 19 47
e 19 48
e 19 49
e 19 50
e 19 51
e 19 52
e 19 53
e 19 54
e 19 57
e 19 59
e 19 60
e 19 61
e 19 62
e 19 65
e 19 66
e 19 67
e 19 68
e 19 69
e 19 75
e 19 76
e 19 79
e 19 80
e 19 82
e 19 88
e 19 91
e 19 92
e 19 96
e 19 97
e 19 98
e 19 101
e 19 102
e 19 103
e 19 108
e 19 112
e 19 113
e 19 115
e 19 125
e 19 129
e 19 131
e 19 133
e 19 136
e 19 138
e 19 141
e 19 145
e 19 149
e 19 152
e 19 153
e 19 156
e 19 162
e 19 165
e 19 169
e 19 177
e 19 181
e 19 183
e 19 185
e 19 187
e 19 189
e 19 190
e 19 197
e 19 200
e 19 204
e 20 21
e 20 22
e 20 23
e 20 24
e 20 25
e 20 26
e 20 27
e 20 28
e 20 29
e 20 30
e 20 31
e 20 32
e 20 33
e 20 34
e 20 36
e 20 37
e 20 38
e 20 39
e 20 40
e 20 42
e 20 43
e 20 48
e 20 51
e 20 54
e 20 57
e 20 58
e 20 60
e 20 62
e 20 63
e 20 67
e 20 68
e 20 71
e 20 72
e 20 79
e 20 82
e 20 91
e 20 95
e 20 97
e 20 99
e 20 103
e 20 106
e 20 117
e 20 121
e 20 122
e 20 123
e 20 133
e 20 135
e 20 138
e 20 141
e 20 144
e 20 145
e 20 153
e 20 159
e 20 160
e 20 164
e 20 165
e 20 166
e 20 170
e 20 171
e 20 175
e 20 180
e 20 182
e 20 183
e 20 185
e 20 189
e 20 190
e 20 191
e 20 192
e 20 193
e 20 198
e 20 199
e 20 204
e 21 22
e 21 23
e 21 24
e 21 25
e 21 26
e 21 30
e 21 31
e 21 33
e 21 34
e 21 35
e 21 36
e 21 37
e 21 41
e 21 42
e 21 44
e 21 45
e 21 46
e 21 47
e 21 55
e 21 59
e 21 60
e 21 65
e 21 68
e 21 71
e 21 74
e 21 77
e 21 79
e 21 80
e 21 95
e 21 96
e 21 99
e 21 100
e 21 102
e 21 105
e 21 112
e 21 120
e 21 129
e 21 134
e 21 140
e 21 161
e 21 168
e 21 175
e 21 184
e 22 23
e 22 24
e 22 25
e 22 26
e 22 28
e 22 29
e 22 33
e 22 34
e 22 35
e 22 36
e 22 37
e 22 39
e 22 40
e 22 41
e 22 45
e 22 46
e 22 47
e 22 49
e 22 50
e 22 51
e 22 52
e 22 64
e 22 68
e 22 71
e 22 80
e 22 81
e 22 87
e 22 89
e 22 90
e 22 92
e 22 99
e 22 105
e 22 108
e 22 109
e 22 112
e 22 114
e 22 118
e 22 120
e 22 122
e 22 126
e 22 133
e 22 134
e 22 135
e 22 136
e 22 157
e 22 159
e 22 167
e 22 169
e 22 171
e 22 173
e 22 176
e 22 181
e 22 183
e 22 198
e 22 204
e 23 27
e 23 28
e 23 29
e 23 30
e 23 31
e 23 32
e 23 33
e 23 36
e 23 39
e 23 40
e 23 41
e 23 43
e 23 47
e 23 51
e 23 61
e 23 66
e 23 68
e 23 70
e 23 72
e 23 75
e 23 76
e 23 79
e 23 80
e 23 83
e 23 84
e 23 86
e 23 87
e 23 89
e 23 98
e 23 99
e 23 103
e 23 113
e 23 116
e 23 118
e 23 121
e 23 122
e 23 130
e 23 133
e 23 144
e 23 146
e 23 149
e 23 155
e 23 164
e 23 165
e 23 173
e 23 176
e 23 179
e 23 187
e 23 199
e 24 25
e 24 26
e 24 27
e 24 28
e 24 32
e 24 34
e 24 35
e 24 36
e 24 37
e 24 38
e 24 40
e 24 41
e 24 45
e 24 46
e 24 49
e 24 51
e 24 52
e 24 53
e 24 56
e 24 57
e 24 62
e 24 64
e 24 65
e 24 71
e 24 73
e 24 78
e 24 80
e 24 81
e 24 93
e 24 94
e 24 96
e 24 97
e 24 99
e 24 100
e 24 107
e 24 111
e 24 122
e 24 128
e 24 132
e 24 142
e 24 146
e 24 149
e 24 150
e 24 167
e 24 177
e 24 192
e 24 194
e 24 195
e 24 196
e 24 197
e 25 26
e 25 27
e 25 28
e 25 29
e 25 31
e 25 32
e 25 33
e 25 34
e 25 35
e 25 37
e 25 39
e 25 41
e 25 44
e 25 45
e 25 48
e 25 49
e 25 53
e 25 55
e 25 56
e 25 59
e 25 62
e 25 64
e 25 66
e 25 67
e 25 68
e 25 69
e 25 71
e 25 74
e 25 75
e 25 76
e 25 77
e 25 78
e 25 81
e 25 82
e 25 83
e 25 100
e 25 101
e 25 104
e 25 108
e 25 109
e 25 110
e 25 113
e 25 115
e 25 116
e 25 124
e 25 126
e 25 135
e 25 136
e 25 140
e 25 143
e 25 144
e 25 162
e 25 166
e 25 168
e 25 171
e 25 178
e 25 180
e 25 186
e 25 188
e 25 192
e 25 198
e 25 204
e 26 28
e 26 29
e 26 30
e 26 32
e 26 36
e 26 38
e 26 40
e 26 43
e 26 45
e 26 46
e 26 47
e 26 48
e 26 60
e 26 69
e 26 70
e 26 75
e 26 78
e 26 86
e 26 87
e 26 89
e 26 91
e 26 92
e 26 94
e 26 95
e 26 102
e 26 103
e 26 105
e 26 107
e 26 121
e 26 135
e 26 144
e 26 146
e 26 153
e 26 159
e 26 160
e 26 162
e 26 164
e 26 166
e 26 176
e 26 181
e 26 190
e 27 30
e 27 31
e 27 32
e 27 37
e 27 38
e 27 39
e 27 41
e 27 42
e 27 49
e 27 57
e 27 59
e 27 63
e 27 66
e 27 73
e 27 87
e 27 95
e 27 98
e 27 102
e 27 111
e 27 130
e 27 132
e 27 137
e 27 143
e 27 144
e 27 152
e 27 158
e 27 161
e 27 178
e 27 188
e 27 194
e 27 196
e 28 29
e 28 30
e 28 33
e 28 35
e 28 36
e 28 39
e 28 40
e 28 42
e 28 46
e 28 48
e 28 55
e 28 70
e 28 74
e 28 76
e 28 77
e 28 94
e 28 110
e 28 124
e 28 127
e 28 144
e 28 152
e 28 155
e 28 158
e 28 160
e 28 168
e 28 170
e 28 176
e 28 182
e 28 188
e 28 200
e 29 30
e 29 31
e 29 32
e 29 34
e 29 35
e 29 36
e 29 37
e 29 38
e 29 40
e 29 41
e 29 43
e 29 44
e 29 45
e 29 47
e 29 50
e 29 53
e 29 55
e 29 56
e 29 59
e 29 60
e 29 64
e 29 66
e 29 67
e 29 68
e 29 69
e 29 70
e 29 76
e 29 78
e 29 80
e 29 82
e 29 83
e 29 88
e 29 89
e 29 90
e 29 95
e 29 96
e 29 97
e 29 98
e 29 100
e 29 101
e 29 104
e 29 110
e 29 116
e 29 118
e 29 125
e 29 126
e 29 127
e 29 132
e 29 133
e 29 134
e 29 140
e 29 143
e 29 146
e 29 150
e 29 154
e 29 163
e 29 164
e 29 176
e 29 182
e 29 185
e 29 186
e 29 188
e 29 195
e 29 196
e 29 197
e 29 200
e 29 204
e 30 31
e 30 32
e 30 35
e 30 36
e 30 37
e 30 39
e 30 41
e 30 42
e 30 43
e 30 44
e 30 46
e 30 50
e 30 51
e 30 52
e 30 53
e 30 54
e 30 55
e 30 58
e 30 60
e 30 65
e 30 74
e 30 79
e 30 81
e 30 84
e 30 86
e 30 89
e 30 93
e 30 99
e 30 106
e 30 121
e 30 125
e 30 128
e 30 130
e 30 136
e 30 143
e 30 144
e 30 147
e 30 153
e 30 162
e 30 169
e 30 172
e 30 175
e 30 180
e 30 184
e 30 190
e 31 32
e 31 33
e 31 34
e 31 38
e 31 39
e 31 40
e 31 42
e 31 46
e 31 50
e 31 55
e 31 62
e 31 65
e 31 69
e 31 77
e 31 83
e 31 88
e 31 92
e 31 107
e 31 108
e 31 112
e 31 119
e 31 124
e 31 131
e 31 141
e 31 147
e 31 150
e 31 152
e 31 159
e 31 165
e 31 171
e 31 172
e 31 181
e 31 202
e 31 203
e 32 33
e 32 34
e 32 35
e 32 37
e 32 39
e 32 40
e 32 42
e 32 43
e 32 44
e 32 52
e 32 55
e 32 57
e 32 59
e 32 61
e 32 63
e 32 65
e 32 67
e 32 69
e 32 72
e 32 75
e 32 76
e 32 81
e 32 84
e 32 86
e 32 88
e 32 89
e 32 90
e 32 92
e 32 93
e 32 94
e 32 95
e 32 104
e 32 111
e 32 119
e 32 120
e 32 121
e 32 124
e 32 128
e 32 130
e 32 140
e 32 147
e 32 172
e 32 185
e 32 204
e 33 34
e 33 35
e 33 38
e 33 42
e 33 43
e 33 49
e 33 51
e 33 54
e 33 55
e 33 62
e 33 64
e 33 69
e 33 75
e 33 76
e 33 78
e 33 80
e 33 89
e 33 91
e 33 94
e 33 96
e 33 121
e 33 125
e 33 127
e 33 133
e 33 144
e 33 151
e 33 152
e 33 153
e 33 161
e 33 162
e 33 168
e 33 181
e 33 190
e 33 194
e 33 201
e 34 35
e 34 39
e 34 41
e 34 42
e 34 43
e 34 44
e 34 46
e 34 48
e 34 50
e 34 53
e 34 58
e 34 62
e 34 63
e 34 71
e 34 78
e 34 79
e 34 88
e 34 103
e 34 106
e 34 109
e 34 113
e 34 118
e 34 120
e 34 123
e 34 130
e 34 133
e 34 163
e 34 169
e 34 172
e 34 173
e 34 174
e 34 176
e 34 186
e 34 189
e 34 196
e 35 37
e 35 38
e 35 41
e 35 43
e 35 45
e 35 52
e 35 54
e 35 56
e 35 57
e 35 58
e 35 59
e 35 60
e 35 61
e 35 62
e 35 63
e 35 64
e 35 67
e 35 70
e 35 71
e 35 73
e 35 75
e 35 77
e 35 81
e 35 82
e 35 83
e 35 85
e 35 90
e 35 91
e 35 100
e 35 102
e 35 107
e 35 109
e 35 110
e 35 117
e 35 124
e 35 127
e 35 128
e 35 131
e 35 137
e 35 140
e 35 148
e 35 153
e 35 154
e 35 156
e 35 162
e 35 172
e 35 175
e 35 177
e 35 182
e 35 188
e 35 189
e 36 39
e 36 44
e 36 46
e 36 47
e 36 50
e 36 51
e 36 52
e 36 58
e 36 62
e 36 65
e 36 75
e 36 82
e 36 108
e 36 113
e 36 116
e 36 119
e 36 139
e 36 149
e 36 154
e 36 172
e 36 173
e 36 186
e 36 189
e 36 198
e 36 201
e 37 41
e 37 42
e 37 43
e 37 44
e 37 45
e 37 49
e 37 57
e 37 60
e 37 63
e 37 72
e 37 73
e 37 76
e 37 85
e 37 99
e 37 104
e 37 109
e 37 114
e 37 134
e 37 145
e 37 150
e 37 159
e 37 160
e 37 169
e 37 173
e 37 179
e 38 41
e 38 43
e 38 47
e 38 71
e 38 83
e 38 88
e 38 97
e 38 107
e 38 116
e 38 121
e 38 122
e 38 128
e 38 142
e 38 160
e 38 167
e 38 169
e 38 170
e 38 194
e 39 43
e 39 44
e 39 46
e 39 48
e 39 53
e 39 56
e 39 57
e 39 59
e 39 60
e 39 61
e 39 63
e 39 64
e 39 65
e 39 66
e 39 75
e 39 76
e 39 84
e 39 89
e 39 91
e 39 95
e 39 98
e 39 100
e 39 107
e 39 108
e 39 112
e 39 114
e 39 115
e 39 116
e 39 119
e 39 123
e 39 135
e 39 136
e 39 139
e 39 144
e 39 149
e 39 152
e 39 153
e 39 154
e 39 168
e 39 169
e 39 174
e 39 175
e 39 187
e 39 190
e 40 47
e 40 48
e 40 50
e 40 66
e 40 70
e 40 77
e 40 87
e 40 90
e 40 94
e 40 103
e 40 104
e 40 110
e 40 112
e 40 113
e 40 121
e 40 130
e 40 134
e 40 165
e 40 166
e 40 189
e 40 196
e 40 200
e 41 46
e 41 48
e 41 53
e 41 55
e 41 57
e 41 59
e 41 62
e 41 65
e 41 69
e 41 71
e 41 72
e 41 73
e 41 74
e 41 77
e 41 81
e 41 86
e 41 89
e 41 92
e 41 99
e 41 100
e 41 104
e 41 117
e 41 123
e 41 127
e 41 129
e 41 137
e 41 144
e 41 146
e 41 168
e 41 170
e 41 174
e 41 180
e 41 186
e 41 196
e 41 199
e 42 50
e 42 57
e 42 62
e 42 67
e 42 70
e 42 81
e 42 90
e 42 125
e 42 128
e 42 148
e 42 154
e 42 161
e 42 169
e 42 174
e 42 179
e 42 199
e 43 44
e 43 45
e 43 47
e 43 48
e 43 57
e 43 63
e 43 75
e 43 78
e 43 83
e 43 94
e 43 98
e 43 101
e 43 102
e 43 105
e 43 110
e 43 113
e 43 119
e 43 124
e 43 130
e 43 132
e 43 134
e 43 138
e 43 142
e 43 143
e 43 145
e 43 148
e 43 155
e 43 158
e 43 165
e 43 166
e 43 173
e 43 183
e 43 194
e 43 201
e 44 45
e 44 49
e 44 56
e 44 58
e 44 60
e 44 61
e 44 66
e 44 67
e 44 69
e 44 74
e 44 75
e 44 80
e 44 96
e 44 102
e 44 108
e 44 118
e 44 129
e 44 144
e 44 146
e 44 155
e 44 160
e 44 186
e 44 193
e 44 195
e 45 46
e 45 48
e 45 49
e 45 52
e 45 55
e 45 56
e 45 63
e 45 64
e 45 72
e 45 74
e 45 88
e 45 94
e 45 97
e 45 98
e 45 101
e 45 105
e 45 106
e 45 112
e 45 123
e 45 124
e 45 128
e 45 131
e 45 144
e 45 147
e 45 152
e 45 165
e 45 171
e 45 182
e 45 188
e 45 198
e 45 200
e 45 203
e 45 204
e 46 48
e 46 49
e 46 53
e 46 54
e 46 61
e 46 62
e 46 66
e 46 74
e 46 76
e 46 85
e 46 96
e 46 101
e 46 104
e 46 128
e 46 132
e 46 137
e 46 138
e 46 139
e 46 149
e 46 155
e 46 157
e 46 167
e 46 189
e 46 192
e 46 193
e 46 197
e 46 198
e 47 50
e 47 51
e 47 53
e 47 54
e 47 55
e 47 63
e 47 69
e 47 77
e 47 79
e 47 85
e 47 92
e 47 93
e 47 106
e 47 111
e 47 115
e 47 119
e 47 124
e 47 138
e 47 143
e 47 147
e 47 149
e 47 154
e 47 163
e 47 164
e 47 165
e 47 167
e 47 191
e 47 193
e 47 194
e 47 199
e 48 49
e 48 50
e 48 51
e 48 53
e 48 54
e 48 55
e 48 56
e 48 60
e 48 68
e 48 70
e 48 74
e 48 75
e 48 78
e 48 81
e 48 89
e 48 96
e 48 98
e 48 100
e 48 104
e 48 118
e 48 119
e 48 120
e 48 123
e 48 125
e 48 129
e 48 139
e 48 146
e 48 161
e 48 165
e 48 167
e 48 168
e 48 174
e 48 184
e 48 187
e 48 195
e 49 52
e 49 56
e 49 65
e 49 72
e 49 73
e 49 75
e 49 78
e 49 87
e 49 90
e 49 104
e 49 106
e 49 116
e 49 118
e 49 119
e 49 120
e 49 121
e 49 123
e 49 136
e 49 138
e 49 139
e 49 145
e 49 148
e 49 162
e 49 164
e 49 166
e 49 172
e 49 178
e 49 179
e 49 189
e 49 191
e 49 193
e 49 195
e 49 199
e 49 203
e 50 51
e 50 54
e 50 59
e 50 61
e 50 64
e 50 68
e 50 88
e 50 94
e 50 95
e 50 104
e 50 124
e 50 128
e 50 134
e 50 135
e 50 147
e 50 150
e 50 157
e 50 163
e 50 182
e 50 186
e 50 195
e 50 201
e 51 52
e 51 58
e 51 60
e 51 61
e 51 67
e 51 69
e 51 70
e 51 71
e 51 80
e 51 82
e 51 85
e 51 96
e 51 111
e 51 116
e 51 131
e 51 145
e 51 150
e 51 156
e 51 166
e 51 195
e 51 200
e 52 58
e 52 68
e 52 70
e 52 72
e 52 81
e 52 84
e 52 87
e 52 102
e 52 107
e 52 115
e 52 117
e 52 119
e 52 121
e 52 124
e 52 125
e 52 126
e 52 134
e 52 136
e 52 141
e 52 153
e 52 159
e 52 165
e 52 168
e 52 170
e 52 172
e 52 190
e 52 193
e 52 201
e 52 203
e 53 64
e 53 68
e 53 71
e 53 78
e 53 81
e 53 83
e 53 85
e 53 98
e 53 106
e 53 107
e 53 108
e 53 109
e 53 114
e 53 125
e 53 129
e 53 138
e 53 162
e 53 166
e 53 170
e 53 178
e 53 180
e 53 183
e 53 184
e 53 195
e 53 197
e 53 202
e 53 204
e 54 56
e 54 62
e 54 67
e 54 71
e 54 77
e 54 84
e 54 90
e 54 106
e 54 111
e 54 113
e 54 114
e 54 118
e 54 124
e 54 135
e 54 140
e 54 163
e 54 169
e 54 183
e 54 186
e 54 191
e 54 192
e 54 196
e 54 201
e 55 56
e 55 58
e 55 62
e 55 72
e 55 73
e 55 80
e 55 81
e 55 90
e 55 94
e 55 95
e 55 99
e 55 103
e 55 105
e 55 109
e 55 115
e 55 122
e 55 126
e 55 131
e 55 141
e 55 162
e 55 172
e 55 179
e 55 181
e 55 183
e 55 187
e 56 63
e 56 87
e 56 89
e 56 103
e 56 107
e 56 110
e 56 140
e 56 142
e 56 143
e 56 145
e 56 149
e 56 155
e 56 156
e 56 158
e 56 163
e 56 166
e 56 170
e 56 195
e 56 198
e 57 61
e 57 63
e 57 73
e 57 74
e 57 80
e 57 82
e 57 83
e 57 84
e 57 101
e 57 103
e 57 105
e 57 122
e 57 129
e 57 134
e 57 142
e 57 184
e 57 202
e 58 59
e 58 60
e 58 67
e 58 69
e 58 70
e 58 84
e 58 90
e 58 91
e 58 92
e 58 98
e 58 101
e 58 113
e 58 121
e 58 130
e 58 131
e 58 152
e 58 157
e 58 158
e 58 164
e 58 167
e 58 191
e 59 62
e 59 66
e 59 75
e 59 85
e 59 86
e 59 96
e 59 107
e 59 117
e 59 119
e 59 136
e 59 148
e 59 174
e 60 69
e 60 79
e 60 83
e 60 100
e 60 118
e 60 140
e 60 141
e 60 142
e 60 160
e 60 167
e 60 168
e 60 176
e 60 189
e 60 194
e 61 68
e 61 70
e 61 86
e 61 94
e 61 95
e 61 96
e 61 99
e 61 120
e 61 135
e 61 137
e 61 152
e 61 159
e 61 172
e 61 184
e 61 190
e 61 198
e 61 202
e 62 64
e 62 79
e 62 81
e 62 87
e 62 97
e 62 99
e 62 102
e 62 111
e 62 114
e 62 158
e 62 162
e 62 175
e 63 66
e 63 72
e 63 73
e 63 81
e 63 82
e 63 87
e 63 88
e 63 95
e 63 102
e 63 113
e 63 114
e 63 117
e 63 118
e 63 121
e 63 123
e 63 127
e 63 128
e 63 133
e 63 146
e 63 163
e 63 173
e 63 187
e 64 66
e 64 68
e 64 73
e 64 74
e 64 83
e 64 88
e 64 96
e 64 98
e 64 102
e 64 103
e 64 107
e 64 110
e 64 123
e 64 126
e 64 143
e 64 149
e 64 150
e 64 155
e 64 156
e 64 168
e 64 171
e 64 193
e 65 77
e 65 79
e 65 88
e 65 89
e 65 96
e 65 115
e 65 119
e 65 160
e 65 177
e 66 82
e 66 138
e 66 141
e 66 142
e 66 167
e 66 181
e 66 201
e 67 76
e 67 92
e 67 93
e 67 94
e 67 101
e 67 105
e 67 106
e 67 111
e 67 128
e 67 130
e 67 134
e 67 135
e 67 141
e 67 150
e 67 154
e 67 157
e 67 158
e 67 162
e 67 176
e 67 179
e 67 180
e 67 183
e 67 184
e 67 188
e 67 197
e 68 77
e 68 85
e 68 86
e 68 87
e 68 88
e 68 102
e 68 122
e 68 135
e 68 136
e 68 157
e 68 171
e 68 172
e 68 187
e 68 193
e 69 70
e 69 75
e 69 82
e 69 98
e 69 110
e 69 113
e 69 123
e 69 140
e 69 168
e 69 173
e 69 180
e 70 71
e 70 74
e 70 84
e 70 88
e 70 90
e 70 92
e 70 93
e 70 94
e 70 102
e 70 108
e 70 109
e 70 110
e 70 117
e 70 129
e 70 133
e 70 140
e 70 151
e 70 152
e 70 153
e 70 154
e 70 155
e 70 178
e 70 179
e 70 185
e 70 200
e 70 201
e 71 73
e 71 74
e 71 79
e 71 84
e 71 85
e 71 86
e 71 100
e 71 114
e 71 130
e 71 143
e 71 146
e 71 147
e 71 154
e 71 157
e 71 158
e 71 166
e 71 174
e 71 179
e 71 182
e 71 191
e 71 203
e 72 78
e 72 93
e 72 101
e 72 126
e 72 128
e 72 132
e 72 139
e 72 140
e 72 144
e 72 145
e 72 174
e 72 178
e 72 182
e 72 185
e 72 188
e 72 192
e 72 202
e 73 100
e 73 108
e 73 115
e 73 125
e 73 139
e 73 151
e 73 159
e 73 170
e 73 179
e 73 188
e 73 202
e 74 78
e 74 82
e 74 85
e 74 87
e 74 91
e 74 93
e 74 103
e 74 106
e 74 114
e 74 122
e 74 124
e 74 135
e 74 141
e 74 146
e 74 151
e 74 160
e 74 176
e 74 188
e 74 201
e 74 203
e 75 85
e 75 86
e 75 87
e 75 115
e 75 116
e 75 127
e 75 157
e 75 175
e 75 183
e 75 202
e 76 79
e 76 98
e 76 106
e 76 112
e 76 114
e 76 128
e 76 138
e 76 166
e 76 169
e 76 176
e 76 185
e 76 191
e 76 193
e 77 80
e 77 83
e 77 90
e 77 93
e 77 95
e 77 105
e 77 117
e 77 136
e 77 137
e 77 158
e 77 178
e 77 194
e 77 200
e 78 86
e 78 139
e 78 146
e 78 170
e 78 177
e 78 178
e 78 184
e 78 197
e 79 91
e 79 108
e 79 133
e 79 138
e 79 144
e 79 147
e 79 166
e 79 172
e 79 192
e 80 82
e 80 91
e 80 95
e 80 99
e 80 117
e 80 119
e 80 127
e 80 137
e 80 146
e 80 147
e 80 154
e 80 176
e 80 184
e 80 200
e 81 85
e 81 98
e 81 99
e 81 102
e 81 104
e 81 109
e 81 111
e 81 114
e 81 115
e 81 121
e 81 126
e 81 127
e 81 160
e 81 161
e 81 164
e 81 165
e 81 171
e 81 181
e 82 106
e 82 107
e 82 109
e 82 117
e 82 122
e 82 127
e 82 129
e 82 137
e 82 192
e 82 202
e 83 89
e 83 132
e 83 140
e 83 141
e 83 158
e 83 161
e 83 190
e 83 196
e 83 197
e 84 95
e 84 96
e 84 108
e 84 120
e 84 123
e 84 125
e 84 134
e 84 147
e 84 151
e 84 156
e 84 169
e 84 186
e 84 191
e 84 194
e 85 87
e 85 112
e 85 125
e 85 154
e 85 157
e 85 161
e 85 197
e 86 90
e 86 102
e 86 106
e 86 116
e 86 126
e 86 135
e 86 139
e 86 170
e 86 182
e 87 91
e 87 97
e 87 127
e 87 134
e 87 136
e 87 203
e 88 97
e 88 103
e 88 139
e 88 142
e 88 145
e 88 167
e 88 168
e 88 170
e 88 177
e 88 190
e 89 103
e 89 132
e 89 133
e 89 141
e 89 181
e 89 192
e 90 108
e 90 115
e 90 132
e 90 154
e 90 181
e 90 189
e 91 94
e 91 101
e 91 132
e 91 142
e 91 180
e 91 196
e 92 117
e 92 133
e 92 153
e 92 179
e 92 194
e 93 104
e 93 113
e 93 129
e 93 131
e 93 142
e 93 157
e 93 159
e 93 164
e 93 171
e 93 186
e 94 99
e 94 118
e 94 126
e 94 131
e 94 136
e 94 138
e 94 140
e 94 151
e 94 153
e 94 158
e 94 159
e 94 198
e 94 199
e 94 202
e 95 100
e 95 105
e 95 109
e 95 116
e 95 122
e 95 133
e 95 144
e 95 152
e 95 155
e 95 156
e 95 157
e 95 165
e 95 168
e 95 190
e 95 196
e 96 119
e 96 120
e 96 122
e 96 147
e 96 148
e 96 172
e 96 175
e 96 181
e 96 189
e 96 192
e 96 198
e 96 201
e 97 100
e 97 112
e 97 126
e 97 142
e 97 149
e 97 155
e 97 175
e 97 196
e 97 203
e 98 104
e 98 105
e 98 109
e 98 117
e 98 121
e 98 135
e 98 149
e 98 181
e 99 105
e 99 107
e 99 110
e 99 120
e 99 143
e 99 158
e 99 189
e 99 197
e 100 110
e 100 128
e 100 146
e 100 162
e 100 187
e 101 106
e 101 111
e 101 127
e 101 142
e 101 162
e 101 173
e 101 203
e 102 107
e 102 110
e 102 120
e 102 130
e 102 143
e 102 173
e 103 112
e 103 123
e 103 138
e 103 159
e 104 124
e 104 131
e 104 154
e 104 158
e 104 177
e 104 184
e 105 123
e 105 150
e 105 152
e 105 160
e 105 162
e 105 168
e 105 170
e 105 177
e 105 180
e 105 181
e 106 115
e 106 124
e 106 143
e 106 150
e 106 167
e 106 195
e 106 196
e 107 164
e 108 117
e 108 119
e 108 131
e 108 139
e 109 134
e 109 138
e 109 147
e 109 150
e 109 151
e 109 157
e 109 167
e 109 180
e 109 202
e 110 120
e 110 132
e 110 152
e 111 112
e 111 116
e 111 124
e 111 127
e 111 148
e 111 176
e 111 183
e 111 186
e 111 188
e 111 198
e 112 118
e 112 139
e 112 147
e 112 199
e 113 115
e 113 146
e 113 150
e 113 177
e 113 186
e 113 190
e 113 194
e 114 151
e 114 152
e 114 155
e 114 158
e 115 129
e 115 137
e 115 145
e 115 150
e 115 152
e 115 161
e 115 173
e 115 174
e 116 118
e 116 129
e 116 132
e 116 140
e 116 145
e 116 151
e 116 153
e 116 156
e 116 159
e 117 118
e 117 120
e 117 125
e 117 127
e 117 141
e 117 145
e 117 151
e 117 162
e 117 165
e 117 178
e 117 185
e 117 200
e 117 202
e 118 145
e 118 154
e 118 188
e 118 198
e 119 132
e 119 134
e 119 136
e 119 152
e 119 172
e 119 175
e 119 183
e 119 186
e 119 202
e 120 123
e 120 134
e 120 156
e 120 164
e 120 167
e 120 169
e 121 145
e 121 182
e 121 199
e 121 204
e 122 191
e 123 145
e 123 161
e 123 175
e 124 125
e 124 132
e 124 148
e 124 151
e 124 181
e 124 182
e 125 137
e 125 143
e 126 129
e 126 137
e 126 139
e 126 161
e 126 202
e 127 129
e 127 133
e 127 179
e 127 191
e 127 199
e 127 202
e 128 131
e 128 136
e 128 142
e 128 148
e 128 163
e 128 185
e 129 135
e 129 158
e 129 173
e 129 174
e 129 175
e 129 179
e 129 183
e 129 201
e 130 140
e 130 154
e 130 161
e 130 173
e 130 174
e 130 182
e 130 192
e 131 137
e 131 143
e 131 144
e 131 174
e 132 140
e 132 163
e 132 202
e 133 135
e 133 151
e 133 156
e 133 161
e 133 185
e 134 146
e 134 165
e 134 176
e 134 188
e 135 142
e 135 150
e 135 155
e 135 164
e 135 171
e 135 179
e 135 204
e 137 173
e 137 175
e 137 176
e 137 177
e 137 191
e 137 193
e 138 191
e 138 201
e 139 151
e 139 155
e 139 172
e 139 177
e 139 178
e 139 196
e 139 202
e 140 174
e 141 153
e 141 159
e 141 168
e 142 150
e 142 157
e 142 163
e 142 195
e 142 200
e 142 201
e 142 203
e 143 167
e 143 177
e 143 194
e 144 171
e 144 182
e 144 194
e 145 175
e 145 184
e 146 156
e 146 160
e 146 187
e 146 191
e 146 192
e 147 186
e 147 200
e 148 149
e 148 156
e 148 157
e 148 179
e 149 165
e 149 169
e 149 175
e 149 187
e 150 161
e 151 153
e 151 157
e 151 185
e 152 154
e 152 160
e 152 169
e 152 174
e 152 184
e 152 198
e 153 156
e 153 196
e 154 161
e 154 178
e 154 193
e 155 162
e 155 187
e 156 164
e 156 198
e 158 160
e 158 181
e 160 177
e 160 178
e 160 187
e 160 203
e 163 166
e 163 175
e 163 190
e 163 197
e 163 199
e 164 178
e 164 183
e 164 203
e 165 166
e 166 169
e 167 177
e 167 178
e 167 190
e 169 171
e 170 195
e 171 184
e 172 187
e 174 179
e 174 182
e 174 203
e 175 180
e 176 177
e 178 197
e 179 189
e 179 200
e 179 204
e 180 193
e 180 199
e 182 191
e 183 200
e 184 197
e 184 199
e 185 194
e 187 193
e 189 193
e 194 198
e 194 204
e 196 201
